(set-logic ALL)
(declare-const x String)
(declare-const y String)
(assert (str.in_re x (re.+ (str.to_re "+hp|"))))
(assert (str.in_re y (re.+ (str.to_re "a"))))
(assert (= (str.len x) 3))
(assert (= (str.to_int y) 5))
(check-sat)
